p cnf 100 120
-89 85 93 0
-47 46 -98 0
-10 86 -55 0
-19 23 36 0
-10 -44 -35 0
50 -40 27 0
-94 22 97 0
-12 -25 -27 0
-57 -62 83 0
-85 5 31 0
69 -3 18 0
13 -24 16 0
28 25 65 0
-13 80 96 0
62 -40 92 0
47 -13 -73 0
44 60 -86 0
-99 58 -93 0
1 -53 -58 0
-34 38 29 0
-33 -49 -21 0
-1 97 38 0
87 -2 89 0
21 -19 -70 0
-56 48 -62 0
89 -44 7 0
53 -64 42 0
3 -27 -75 0
-99 82 6 0
-99 24 36 0
-24 6 -9 0
-36 -95 -45 0
-5 66 -33 0
97 5 72 0
-73 81 -41 0
35 -87 -28 0
-84 -16 41 0
-4 -87 16 0
-20 -2 -62 0
-85 -53 -54 0
82 -100 -66 0
61 -96 16 0
-98 32 -26 0
-48 94 19 0
83 72 88 0
-91 -41 -33 0
-11 -5 -52 0
81 72 7 0
-61 73 94 0
10 -8 11 0
57 -98 46 0
-64 12 -88 0
67 -99 -8 0
58 -1 -14 0
85 22 43 0
-60 7 -30 0
3 -1 -99 0
-70 4 12 0
-27 81 -7 0
-96 88 60 0
55 85 -71 0
-29 -13 -15 0
-60 -30 -20 0
47 91 -83 0
-41 -91 -73 0
4 78 -43 0
-15 -24 18 0
-99 -81 -98 0
-17 -32 -89 0
-49 58 61 0
-57 -84 91 0
-48 -52 -8 0
23 -7 53 0
69 38 30 0
25 -34 -15 0
83 -4 74 0
82 -77 71 0
-50 18 85 0
-24 79 90 0
32 -37 -49 0
100 14 -68 0
-25 3 -63 0
-2 -13 -60 0
84 34 59 0
85 7 -93 0
-46 62 57 0
97 10 72 0
36 -46 73 0
59 27 -65 0
58 -81 -17 0
-52 -22 -86 0
3 -23 -25 0
93 -63 15 0
39 -47 97 0
87 42 -92 0
-1 39 46 0
58 -42 49 0
-63 32 -80 0
97 -1 -86 0
85 -74 97 0
x -2 3 -4 5 6 8 -9 -10 11 13 -16 -17 18 20 28 29 -31 -32 33 -34 38 39 42 -46 47 51 55 56 57 59 -61 62 -67 68 69 -70 72 75 77 81 -82 87 -90 -91 -92 -93 -95 97 -98 99 0
x -2 3 4 -6 -7 8 -10 11 12 -19 -21 23 -24 -25 26 -27 -28 29 30 33 -34 -35 36 37 -38 39 41 -43 -46 47 49 52 -54 -55 57 -59 63 -65 -66 67 68 -69 70 73 77 -80 -82 83 -84 -88 93 96 -97 99 -100 0
x -1 -3 -4 6 -7 -9 -10 11 -12 13 16 18 23 25 29 -32 33 -36 -37 38 39 42 -43 -44 -47 -49 -51 -57 -59 63 67 69 70 74 -75 -78 80 81 -82 84 -85 87 -88 -91 -93 96 98 99 -100 0
x 1 -2 -7 9 11 -15 -17 -19 -20 -21 -22 26 -34 -35 38 39 -49 50 -51 52 -57 59 60 61 62 63 64 -65 66 68 -69 70 -73 78 -85 87 -94 95 -96 -98 -99 100 0
x 2 3 -4 5 6 -7 8 -10 -13 -15 -16 19 20 -21 22 -24 -25 26 -27 -29 -31 32 -35 36 -38 39 40 -41 -45 -46 47 -48 -51 53 -54 -56 -58 61 -62 -70 72 -73 74 75 -76 77 79 -83 -85 87 -89 91 -92 94 -96 -99 0
x 1 -3 -4 5 7 8 10 17 -18 19 -24 25 -29 -35 37 -38 -40 -41 42 43 44 46 51 52 53 55 56 -57 -60 -61 63 64 68 -69 -70 77 79 80 81 -82 -83 -86 89 -92 93 -94 -98 0
x -4 5 6 7 -8 9 -14 15 17 18 -22 23 -26 27 29 30 32 33 -34 36 39 -40 -41 44 -45 -49 -51 52 53 54 -55 -56 58 61 62 -64 -65 68 -70 72 -73 -74 76 -77 -79 -81 -84 86 91 -93 95 -97 100 0
x 2 4 6 8 -11 -20 24 30 -31 -32 33 43 -45 46 48 -51 -59 -61 62 -69 -73 -74 75 -78 -79 81 -83 -84 86 87 -88 89 94 95 96 97 99 100 0
x -2 6 -7 9 10 11 12 -13 -14 -15 -17 -18 -19 -21 22 -23 25 26 27 -29 -30 -31 -32 -34 -35 -36 -37 38 39 40 -42 -44 -51 -53 -56 -59 60 -61 63 64 -69 -71 72 -75 76 -80 82 -83 84 -85 -86 -88 -92 93 -95 98 99 0
x 3 5 6 7 -8 9 -10 13 14 -15 18 24 28 33 -37 -41 -42 43 -44 -47 50 52 56 -58 60 -64 66 -67 69 70 71 -73 -74 -75 -76 -77 78 79 80 83 85 87 90 91 92 -95 -98 99 0
x 1 2 -5 6 -9 11 -13 16 -17 19 20 21 22 -23 24 25 -28 -29 -30 31 -34 35 39 -40 -45 50 -55 56 58 59 -60 62 -64 65 67 -69 71 72 -74 75 77 -78 -79 81 84 85 -86 88 -91 96 -97 -99 0
x -2 -3 -4 5 -7 11 -12 14 16 -18 -19 20 -21 22 -30 -31 33 -35 -36 -40 41 -42 -43 44 45 -47 -48 50 52 -53 58 59 -61 -63 76 -77 78 -79 80 81 82 -83 -84 85 -89 -91 -92 93 -94 -98 -99 0
x 1 -3 -6 7 -10 13 15 -16 17 22 -25 -26 27 -28 29 37 38 -39 -40 -44 45 -46 47 53 -54 -55 57 58 -60 64 65 -66 -67 68 -70 -72 73 -74 -78 83 -84 87 -88 90 -92 -93 94 -97 0
x -1 2 -4 -7 -8 -9 10 13 -14 17 19 -22 23 -24 -25 -26 -28 -29 31 33 -34 36 37 38 39 40 -41 42 -43 44 45 -46 49 -51 53 56 -58 61 -65 -67 -68 69 72 -73 -75 77 -82 -83 -85 -87 -88 90 -94 95 96 98 -99 0
x 1 -2 -3 -4 5 -6 9 11 15 -16 18 19 20 21 -22 23 24 26 30 -31 33 36 38 39 -41 42 -43 46 -48 51 -52 53 -54 -55 -57 61 62 -65 -69 70 72 75 -76 -77 -81 -82 -83 84 89 -92 -93 -97 98 99 -100 0
x 11 12 13 14 -20 -21 -22 -24 26 28 30 -31 -32 -34 -37 39 -41 46 -50 51 -52 -53 54 -56 -57 -58 59 61 62 64 65 -66 67 70 73 -77 -78 -80 -81 -82 83 85 88 -90 -92 95 -98 -99 -100 0
x -1 -2 -8 9 -15 17 -18 24 -26 27 28 -29 -33 -34 35 -39 -41 43 44 -46 -52 -58 59 62 63 67 -69 70 71 74 -75 -80 -81 82 -83 -85 87 -89 90 -95 98 100 0
x 2 -4 7 -8 10 11 -12 -13 14 15 17 -19 -20 -23 24 25 -27 -29 -32 33 34 -35 -37 39 -41 -43 -44 45 47 51 -53 54 55 56 -57 58 -59 -60 -61 62 63 -64 -65 66 -67 -69 -71 -72 -73 -75 -78 79 84 -85 -87 -92 -93 -94 -98 0
x 2 -3 6 9 11 -12 15 17 -18 19 21 -22 -25 -29 -30 -32 34 36 -37 -38 42 -43 45 46 50 51 52 53 54 55 -57 -58 -60 61 64 -68 70 71 72 74 -75 -77 78 80 82 -83 -84 88 -89 -90 93 -94 -95 97 -98 -99 0
x -4 5 -8 -9 13 14 -15 -16 17 -18 -19 -22 -25 -26 -29 -30 31 32 37 39 -40 41 -44 46 47 -49 -50 -51 -53 -56 61 -64 -66 -67 -68 70 -72 73 -77 78 -79 -80 -81 85 -86 89 -93 95 -96 97 98 100 0
